Version identifier: 22.1.1.0 | 2022-11-28 | 9160aff4d
CPXPARAM_ClockType                               1
CPXPARAM_Read_DataCheck                          1
CPXPARAM_Threads                                 1
CPXPARAM_TimeLimit                               7200
CPXPARAM_MIP_Tolerances_AbsMIPGap                0
CPXPARAM_MIP_Tolerances_MIPGap                   0
CPXPARAM_MIP_Tolerances_Integrality              0
Tried aggregator 6 times.
MIP Presolve eliminated 18322 rows and 1721 columns.
MIP Presolve modified 8795 coefficients.
Aggregator did 5289 substitutions.
Reduced MIP has 67052 rows, 16621 columns, and 217389 nonzeros.
Reduced MIP has 16621 binaries, 0 generals, 0 SOSs, and 0 indicators.
Presolve time = 0.57 sec. (376.14 ticks)
Probing time = 0.03 sec. (19.49 ticks)
Tried aggregator 1 time.
Detecting symmetries...
MIP Presolve eliminated 75 rows and 3 columns.
Reduced MIP has 66977 rows, 16618 columns, and 217096 nonzeros.
Reduced MIP has 16618 binaries, 0 generals, 0 SOSs, and 0 indicators.
Presolve time = 0.33 sec. (197.81 ticks)
Probing time = 0.02 sec. (7.88 ticks)
Clique table members: 25407.
MIP emphasis: balance optimality and feasibility.
MIP search method: dynamic search.
Parallel mode: none, using 1 thread.
Root relaxation solution time = 4778.29 sec. (1551167.90 ticks)

        Nodes                                         Cuts/
   Node  Left     Objective  IInf  Best Integer    Best Bound    ItCnt     Gap

      0     0     8147.7138  8234                   8147.7138  1975463         
      0     0     7118.3529  6393                  Cuts: 3999  2224620         

GUB cover cuts applied:  4
Clique cuts applied:  1082
Cover cuts applied:  14
Implied bound cuts applied:  186
Zero-half cuts applied:  2883
Lift and project cuts applied:  26
Gomory fractional cuts applied:  35

Root node processing (before b&c):
  Real time             = 7200.08 sec. (2534013.29 ticks)
Sequential b&c:
  Real time             =    0.00 sec. (0.00 ticks)
                          ------------
Total (root+branch&cut) = 7200.08 sec. (2534013.29 ticks)
Solution is infeasible.

---------------------
@@@ MIP_time_limit_infeasible
Traceback (most recent call last):
  File "/scratch/scherif/DiverseSAT-journal_sup/DiverseSAT_Supplementary_Experiments/experiment-1/cplex/jobs/../solvers/CPLEX-BIN-SE.py", line 134, in <module>
    print(f">>> Benchmark {os.path.basename(cnf_file)} k {k} OPT {int(prob.solution.get_objective_value())}"
  File "/users/scherif/.local/lib/python3.9/site-packages/cplex/_internal/_subinterfaces.py", line 7211, in get_objective_value
    return CPX_PROC.getobjval(self._env._e, self._cplex._lp)
  File "/users/scherif/.local/lib/python3.9/site-packages/cplex/_internal/_procedural.py", line 2055, in getobjval
    check_status(env, status)
  File "/users/scherif/.local/lib/python3.9/site-packages/cplex/_internal/_procedural.py", line 249, in __call__
    raise CplexSolverError(error_string, env, status)
cplex.exceptions.errors.CplexSolverError: CPLEX Error  1217: No solution exists.
